(declare-const havoc Int)
(declare-const |sum':49:58:61| Int)
(declare-const |i':50:59:62| Int)
(declare-const |K:56:57:60| Int)
(assert (and (<= (+ (- havoc) 1) 0) (<= (+ havoc -1000) 0)
               (or (not (<= (- |K:56:57:60|) 0))
                     (= (+ (* 2 |sum':49:58:61|)
                             (- (* |K:56:57:60| |K:56:57:60|))
                             (- |K:56:57:60|)) 0))
               (or (not (<= (- |K:56:57:60|) 0))
                     (= (+ |i':50:59:62| (- |K:56:57:60|) -1) 0))
               (or (and (= |K:56:57:60| 0) (= (+ (- |i':50:59:62|) 1) 0)
                          (= (- |sum':49:58:61|) 0))
                     (and (<= (+ (- |K:56:57:60|) 1) 0)
                            (<= (+ (- havoc) 1) 0)
                            (<= (+ |i':50:59:62| (- |sum':49:58:61|) -1) 0)
                            (<= (+ |i':50:59:62| (- havoc) -1) 0)
                            (<= (+ (- |i':50:59:62|) 2) 0)))
               (<= (- |K:56:57:60|) 0) (<= (- |sum':49:58:61|) 0)
               (< (- |i':50:59:62|) 0) (< (- havoc) 0)
               (< (+ (- |i':50:59:62|) havoc) 0)
               (not (= (+ (* 2 |sum':49:58:61|) (- (* havoc havoc)) (- havoc)) 0))))
(check-sat)
